(set-logic QF_S)
(declare-fun var0 () String)
(declare-fun var1 () String)
(declare-fun var2 () String)
(declare-fun var3 () String)
(declare-fun var4 () String)
(declare-fun var5 () String)
(declare-fun var6 () String)
(declare-fun var7 () String)
(declare-fun var8 () String)
(declare-fun var9 () String)
(declare-fun var10 () String)
(declare-fun var11 () String)
(declare-fun var12 () String)
(declare-fun var13 () String)
(declare-fun var14 () String)
(declare-fun var15 () String)
(declare-fun var16 () String)
(declare-fun var17 () String)
(declare-fun var18 () String)
(declare-fun var19 () String)
(declare-fun var20 () String)
(declare-fun var21 () String)
(declare-fun var22 () String)
(declare-fun var23 () String)
(declare-fun var24 () String)
(declare-fun var25 () String)
(declare-fun var26 () String)
(declare-fun var27 () String)
(declare-fun var28 () String)
(declare-fun var29 () String)
(declare-fun var30 () String)
(declare-fun var31 () String)
(declare-fun var32 () String)
(declare-fun var33 () String)
(declare-fun var34 () String)
(declare-fun var35 () String)
(declare-fun var36 () String)
(declare-fun var37 () String)
(declare-fun var38 () String)
(declare-fun var39 () String)
(declare-fun var40 () String)
(declare-fun var41 () String)
(declare-fun var42 () String)
(declare-fun var43 () String)
(declare-fun var44 () String)
(declare-fun var45 () String)
(declare-fun var46 () String)
(declare-fun var47 () String)
(declare-fun var48 () String)
(declare-fun var49 () String)
(declare-fun var50 () String)
(declare-fun var51 () String)
(declare-fun var52 () String)
(declare-fun var53 () String)
(declare-fun var54 () String)
(declare-fun var55 () String)
(declare-fun var56 () String)
(declare-fun var57 () String)
(declare-fun var58 () String)
(declare-fun var59 () String)
(declare-fun var60 () String)
(assert (= var0 (str.++ var1 var2)))
(assert (= var2 (str.++ var3 var4)))
(assert (= var4 (str.++ var5 var6)))
(assert (= var6 (str.++ var7 var8)))
(assert (= var8 (str.++ var9 var10)))
(assert (= var10 (str.++ var11 var12)))
(assert (= var12 (str.++ var13 var14)))
(assert (= var14 (str.++ var15 var16)))
(assert (= var16 (str.++ var17 var18)))
(assert (= var18 (str.++ var19 var20)))
(assert (= var20 (str.++ var21 var22)))
(assert (= var22 (str.++ var23 var24)))
(assert (= var24 (str.++ var25 var26)))
(assert (= var26 (str.++ var27 var28)))
(assert (= var28 (str.++ var29 var30)))
(assert (= var30 (str.++ var31 var32)))
(assert (= var32 (str.++ var33 var34)))
(assert (= var34 (str.++ var35 var36)))
(assert (= var36 (str.++ var37 var38)))
(assert (= var38 (str.++ var39 var40)))
(assert (= var40 (str.++ var41 var42)))
(assert (= var42 (str.++ var43 var44)))
(assert (= var44 (str.++ var45 var46)))
(assert (= var46 (str.++ var47 var48)))
(assert (= var48 (str.++ var49 var50)))
(assert (= var50 (str.++ var51 var52)))
(assert (= var52 (str.++ var53 var54)))
(assert (= var54 (str.++ var55 var56)))
(assert (= var56 (str.++ var57 var58)))
(assert (= var58 (str.++ var59 var60)))
(assert (= var0 "solution"))
(assert (= "p" (str.at var45 306)))
(assert (= "0" (str.at var38 798)))
(assert (= "/" (str.at var34 83)))
(assert (= "s" (str.at var10 581)))
(assert (= "!" (str.at var48 120)))
(assert (= "\\" (str.at var51 474)))
(assert (= "j" (str.at var8 446)))
(assert (= "S" (str.at var49 59)))
(assert (= "?" (str.at var18 82)))
(assert (= "D" (str.at var28 641)))
(assert (= "F" (str.at var0 635)))
(assert (= "?" (str.at var22 297)))
(assert (= "5" (str.at var44 563)))
(assert (= "/" (str.at var25 97)))
(assert (= "s" (str.at var14 110)))
(assert (= "<" (str.at var13 898)))
(assert (= "}" (str.at var32 887)))
(assert (= "e" (str.at var4 869)))
(assert (= "s" (str.at var26 631)))
(assert (= "U" (str.at var8 167)))
(assert (= "+" (str.at var2 967)))
(assert (= "=" (str.at var12 465)))
(assert (= "<" (str.at var29 347)))
(assert (= "`" (str.at var54 844)))
(assert (= "M" (str.at var39 717)))
(assert (= "|" (str.at var21 333)))
(assert (= "W" (str.at var8 483)))
(assert (= "\\" (str.at var15 651)))
(assert (= "g" (str.at var56 664)))
(assert (= "U" (str.at var49 718)))
(assert (= "0" (str.at var37 454)))
(assert (= "4" (str.at var5 129)))
(assert (= "Y" (str.at var31 326)))
(assert (= "N" (str.at var60 279)))
(assert (= "Y" (str.at var48 991)))
(assert (= "3" (str.at var1 668)))
(assert (= "C" (str.at var16 891)))
(assert (= "t" (str.at var58 239)))
(assert (= "&" (str.at var7 331)))
(assert (= "<" (str.at var45 593)))
(assert (= "`" (str.at var33 457)))
(assert (= "E" (str.at var9 11)))
(assert (= "f" (str.at var43 94)))
(assert (= "i" (str.at var58 265)))
(assert (= "W" (str.at var6 162)))
(assert (= "Y" (str.at var19 730)))
(assert (= "#" (str.at var1 59)))
(assert (= "P" (str.at var59 660)))
(assert (= "a" (str.at var6 637)))
(assert (= "P" (str.at var12 612)))
(assert (= "w" (str.at var4 748)))
(assert (= "U" (str.at var8 82)))
(assert (= "6" (str.at var28 465)))
(assert (= "|" (str.at var27 965)))
(assert (= "X" (str.at var6 9)))
(assert (= "2" (str.at var10 454)))
(assert (= "6" (str.at var55 572)))
(assert (= "*" (str.at var38 485)))
(assert (= "#" (str.at var27 45)))
(assert (= "8" (str.at var24 624)))
(assert (= "-" (str.at var25 302)))
(assert (= "i" (str.at var54 396)))
(assert (= "?" (str.at var55 57)))
(assert (= "b" (str.at var4 62)))
(assert (= "V" (str.at var1 283)))
(assert (= "_" (str.at var34 958)))
(assert (= "5" (str.at var29 437)))
(assert (= "," (str.at var29 288)))
(assert (= "c" (str.at var31 23)))
(assert (= "L" (str.at var54 338)))
(assert (= "1" (str.at var40 632)))
(assert (= "^" (str.at var46 806)))
(assert (= "Z" (str.at var50 903)))
(assert (= "W" (str.at var17 116)))
(assert (= ";" (str.at var28 431)))
(assert (= "1" (str.at var56 918)))
(assert (= "E" (str.at var54 559)))
(assert (= "w" (str.at var37 914)))
(assert (= "6" (str.at var43 153)))
(assert (= "s" (str.at var13 315)))
(assert (= "W" (str.at var48 604)))
(assert (= "}" (str.at var39 715)))
(assert (= "u" (str.at var30 907)))
(assert (= "{" (str.at var29 8)))
(assert (= "j" (str.at var58 361)))
(assert (= "9" (str.at var41 433)))
(assert (= "#" (str.at var22 495)))
(assert (= "u" (str.at var35 758)))
(assert (= "Q" (str.at var43 586)))
(assert (= "u" (str.at var5 271)))
(assert (= "q" (str.at var21 877)))
(assert (= "e" (str.at var36 846)))
(assert (= "2" (str.at var25 981)))
(assert (= "z" (str.at var45 338)))
(assert (= "F" (str.at var15 645)))
(assert (= "]" (str.at var56 72)))
(assert (= "b" (str.at var34 65)))
(assert (= "6" (str.at var50 182)))
(assert (= "&" (str.at var6 653)))
(assert (= ">" (str.at var37 692)))
(assert (= "'" (str.at var53 285)))
(assert (= "/" (str.at var45 853)))
(assert (= "n" (str.at var0 19)))
(assert (= "#" (str.at var34 716)))
(assert (= "g" (str.at var13 282)))
(assert (= "Z" (str.at var17 296)))
(assert (= "$" (str.at var16 746)))
(assert (= "," (str.at var0 502)))
(assert (= "." (str.at var43 9)))
(assert (= "~" (str.at var39 933)))
(assert (= ";" (str.at var5 64)))
(assert (= "}" (str.at var14 816)))
(assert (= "G" (str.at var10 806)))
(assert (= "n" (str.at var42 718)))
(assert (= "1" (str.at var26 354)))
(assert (= """" (str.at var34 76)))
(assert (= "/" (str.at var0 199)))
(assert (= "{" (str.at var12 103)))
(assert (= "}" (str.at var31 41)))
(assert (= "d" (str.at var53 618)))
(assert (= "C" (str.at var5 282)))
(assert (= "M" (str.at var35 654)))
(assert (= "6" (str.at var34 574)))
(assert (= "Y" (str.at var7 77)))
(assert (= "n" (str.at var13 105)))
(assert (= "E" (str.at var51 936)))
(assert (= "{" (str.at var16 846)))
(assert (= ">" (str.at var21 81)))
(assert (= "b" (str.at var24 163)))
(assert (= ":" (str.at var17 64)))
(assert (= "U" (str.at var52 597)))
(assert (= ">" (str.at var48 752)))
(assert (= "O" (str.at var32 619)))
(assert (= "}" (str.at var34 480)))
(assert (= "-" (str.at var46 396)))
(assert (= "P" (str.at var49 767)))
(assert (= "i" (str.at var31 810)))
(assert (= "U" (str.at var2 591)))
(assert (= "7" (str.at var40 280)))
(assert (= "g" (str.at var13 991)))
(assert (= "x" (str.at var2 791)))
(assert (= "=" (str.at var11 230)))
(assert (= "7" (str.at var26 746)))
(assert (= "m" (str.at var39 562)))
(assert (= "." (str.at var34 814)))
(assert (= "3" (str.at var43 928)))
(assert (= "X" (str.at var54 448)))
(assert (= "^" (str.at var22 480)))
(assert (= "!" (str.at var3 850)))
(assert (= "`" (str.at var20 216)))
(assert (= "l" (str.at var39 731)))
(assert (= "}" (str.at var34 22)))
(assert (= "p" (str.at var41 447)))
(assert (= "Z" (str.at var47 462)))
(assert (= "o" (str.at var40 77)))
(assert (= "k" (str.at var31 560)))
(assert (= "6" (str.at var57 695)))
(assert (= "b" (str.at var13 112)))
(assert (= "C" (str.at var48 354)))
(assert (= "[" (str.at var49 775)))
(assert (= "0" (str.at var26 800)))
(assert (= "r" (str.at var59 866)))
(assert (= "&" (str.at var29 433)))
(assert (= "L" (str.at var1 777)))
(assert (= "#" (str.at var4 7)))
(assert (= "R" (str.at var15 174)))
(assert (= "%" (str.at var25 216)))
(assert (= "H" (str.at var6 722)))
(assert (= "~" (str.at var18 394)))
(assert (= "D" (str.at var48 196)))
(assert (= "#" (str.at var3 204)))
(assert (= "v" (str.at var26 443)))
(assert (= "X" (str.at var15 872)))
(assert (= "y" (str.at var49 447)))
(assert (= "a" (str.at var13 57)))
(assert (= "a" (str.at var3 639)))
(assert (= "z" (str.at var12 105)))
(assert (= "-" (str.at var21 999)))
(assert (= "1" (str.at var20 316)))
(assert (= "v" (str.at var24 575)))
(assert (= "-" (str.at var57 430)))
(assert (= ";" (str.at var8 994)))
(assert (= "2" (str.at var37 826)))
(assert (= "s" (str.at var39 188)))
(assert (= "$" (str.at var12 221)))
(assert (= ")" (str.at var18 114)))
(assert (= "b" (str.at var34 811)))
(assert (= ">" (str.at var19 68)))
(assert (= ">" (str.at var38 734)))
(assert (= "[" (str.at var6 352)))
(assert (= "L" (str.at var18 845)))
(assert (= "1" (str.at var40 91)))
(assert (= "H" (str.at var18 349)))
(assert (= "p" (str.at var35 679)))
(assert (= "o" (str.at var16 0)))
(assert (= "9" (str.at var3 279)))
(assert (= "P" (str.at var54 728)))
(assert (= "x" (str.at var59 424)))
(assert (= "v" (str.at var19 348)))
(assert (= "\\" (str.at var28 106)))
(assert (= "E" (str.at var8 695)))
(assert (= "i" (str.at var29 793)))
(assert (= "5" (str.at var50 909)))
(assert (= "4" (str.at var5 326)))
(assert (= "4" (str.at var32 462)))
(assert (= "=" (str.at var39 579)))
(assert (= "q" (str.at var12 585)))
(assert (= "^" (str.at var46 462)))
(assert (= "[" (str.at var35 429)))
(assert (= "S" (str.at var55 699)))
(assert (= "$" (str.at var60 718)))
(assert (= "t" (str.at var43 35)))
(assert (= ")" (str.at var43 740)))
(assert (= "e" (str.at var48 370)))
(assert (= "J" (str.at var11 844)))
(assert (= "m" (str.at var32 872)))
(assert (= "S" (str.at var37 200)))
(assert (= "?" (str.at var30 633)))
(assert (= "0" (str.at var32 635)))
(assert (= "2" (str.at var54 382)))
(assert (= "@" (str.at var40 168)))
(assert (= ">" (str.at var24 556)))
(assert (= "3" (str.at var49 87)))
(assert (= "R" (str.at var53 884)))
(assert (= "}" (str.at var8 967)))
(assert (= "3" (str.at var53 127)))
(assert (= "?" (str.at var19 620)))
(assert (= "F" (str.at var33 258)))
(assert (= "G" (str.at var14 915)))
(assert (= "X" (str.at var11 845)))
(assert (= "(" (str.at var24 117)))
(assert (= "." (str.at var22 526)))
(assert (= "M" (str.at var8 890)))
(assert (= "~" (str.at var30 652)))
(assert (= "g" (str.at var25 468)))
(assert (= "}" (str.at var1 631)))
(assert (= "j" (str.at var40 486)))
(assert (= "'" (str.at var17 699)))
(assert (= "F" (str.at var48 792)))
(assert (= "N" (str.at var44 962)))
(assert (= "1" (str.at var46 434)))
(assert (= "Q" (str.at var4 856)))
(assert (= "z" (str.at var21 184)))
(assert (= "R" (str.at var39 444)))
(assert (= "H" (str.at var15 737)))
(assert (= "]" (str.at var54 464)))
(assert (= "u" (str.at var35 874)))
(assert (= "K" (str.at var30 181)))
(assert (= "g" (str.at var34 911)))
(assert (= "O" (str.at var49 894)))
(assert (= "k" (str.at var56 206)))
(assert (= "I" (str.at var49 919)))
(assert (= "+" (str.at var42 68)))
(assert (= "P" (str.at var51 559)))
(assert (= "G" (str.at var52 99)))
(assert (= "A" (str.at var10 552)))
(assert (= "&" (str.at var11 387)))
(assert (= "I" (str.at var52 998)))
(assert (= "c" (str.at var2 465)))
(assert (= "k" (str.at var31 668)))
(assert (= "q" (str.at var19 318)))
(assert (= "," (str.at var17 248)))
(assert (= "L" (str.at var13 713)))
(assert (= "E" (str.at var8 740)))
(assert (= "$" (str.at var26 623)))
(assert (= "'" (str.at var56 272)))
(assert (= ";" (str.at var42 920)))
(assert (= "M" (str.at var15 631)))
(assert (= "-" (str.at var14 691)))
(assert (= "v" (str.at var12 231)))
(assert (= "]" (str.at var18 269)))
(assert (= "h" (str.at var51 718)))
(assert (= "F" (str.at var37 127)))
(assert (= "E" (str.at var59 524)))
(assert (= "`" (str.at var15 56)))
(assert (= "u" (str.at var1 281)))
(assert (= "n" (str.at var24 723)))
(assert (= "<" (str.at var25 595)))
(assert (= "<" (str.at var57 173)))
(assert (= "m" (str.at var43 578)))
(assert (= "W" (str.at var2 804)))
(assert (= "Y" (str.at var41 641)))
(assert (= "j" (str.at var0 636)))
(assert (= "H" (str.at var55 219)))
(assert (= "r" (str.at var47 368)))
(assert (= ">" (str.at var2 91)))
(assert (= "J" (str.at var54 113)))
(assert (= ">" (str.at var18 730)))
(assert (= "h" (str.at var60 284)))
(assert (= "H" (str.at var24 50)))
(assert (= "c" (str.at var50 501)))
(assert (= "?" (str.at var34 62)))
(assert (= "=" (str.at var23 969)))
(assert (= "N" (str.at var9 339)))
(assert (= "}" (str.at var9 370)))
(assert (= "E" (str.at var20 821)))
(assert (= "," (str.at var16 708)))
(assert (= """" (str.at var7 493)))
(assert (= "@" (str.at var36 252)))
(assert (= "C" (str.at var43 376)))
(assert (= "|" (str.at var48 62)))
(assert (= "g" (str.at var2 656)))
(assert (= "a" (str.at var13 646)))
(assert (= "8" (str.at var19 56)))
(assert (= "T" (str.at var51 715)))
(assert (= "?" (str.at var4 349)))
(assert (= "c" (str.at var2 459)))
(assert (= "," (str.at var25 237)))
(assert (= "#" (str.at var13 736)))
(assert (= "h" (str.at var41 666)))
(assert (= "K" (str.at var33 503)))
(assert (= "'" (str.at var7 932)))
(assert (= "A" (str.at var54 777)))
(assert (= "c" (str.at var32 150)))
(assert (= "e" (str.at var34 147)))
(assert (= "y" (str.at var31 381)))
(assert (= "f" (str.at var48 902)))
(assert (= "]" (str.at var33 589)))
(assert (= ":" (str.at var1 736)))
(assert (= "=" (str.at var8 126)))
(assert (= "&" (str.at var21 7)))
(assert (= "7" (str.at var57 487)))
(assert (= "#" (str.at var17 401)))
(assert (= "u" (str.at var31 339)))
(assert (= "?" (str.at var55 770)))
(assert (= "-" (str.at var28 434)))
(assert (= "=" (str.at var45 476)))
(assert (= "*" (str.at var50 711)))
(assert (= "f" (str.at var3 812)))
(assert (= "W" (str.at var57 583)))
(assert (= "/" (str.at var2 806)))
(assert (= "R" (str.at var35 573)))
(assert (= "f" (str.at var15 534)))
(assert (= ":" (str.at var6 984)))
(assert (= "Q" (str.at var47 703)))
(assert (= "]" (str.at var34 226)))
(assert (= "<" (str.at var57 837)))
(assert (= "v" (str.at var44 315)))
(assert (= "q" (str.at var31 30)))
(assert (= "N" (str.at var0 586)))
(assert (= "f" (str.at var30 117)))
(assert (= "T" (str.at var33 720)))
(assert (= "Y" (str.at var48 641)))
(assert (= "." (str.at var27 863)))
(assert (= "}" (str.at var52 845)))
(assert (= ">" (str.at var37 652)))
(assert (= "4" (str.at var45 241)))
(assert (= "y" (str.at var1 1000)))
(assert (= "w" (str.at var2 130)))
(assert (= ")" (str.at var53 358)))
(assert (= "K" (str.at var28 740)))
(assert (= "[" (str.at var30 986)))
(assert (= "}" (str.at var60 924)))
(assert (= "$" (str.at var36 370)))
(assert (= "M" (str.at var33 929)))
(assert (= "A" (str.at var42 867)))
(assert (= "-" (str.at var58 967)))
(assert (= "}" (str.at var34 866)))
(assert (= "A" (str.at var28 885)))
(assert (= "s" (str.at var51 512)))
(assert (= """" (str.at var59 195)))
(assert (= "*" (str.at var47 670)))
(assert (= "m" (str.at var29 584)))
(assert (= ";" (str.at var57 201)))
(assert (= "j" (str.at var1 829)))
(assert (= "S" (str.at var20 786)))
(assert (= "\\" (str.at var3 291)))
(assert (= "f" (str.at var57 193)))
(assert (= "," (str.at var32 552)))
(assert (= "9" (str.at var55 735)))
(assert (= """" (str.at var11 556)))
(assert (= "'" (str.at var45 774)))
(assert (= "y" (str.at var5 573)))
(assert (= """" (str.at var20 842)))
(assert (= "2" (str.at var20 720)))
(assert (= """" (str.at var22 909)))
(assert (= "R" (str.at var34 74)))
(assert (= "}" (str.at var4 689)))
(assert (= "t" (str.at var42 869)))
(assert (= "N" (str.at var21 354)))
(assert (= "O" (str.at var37 63)))
(assert (= "^" (str.at var29 322)))
(assert (= "X" (str.at var19 978)))
(assert (= "*" (str.at var56 537)))
(assert (= ";" (str.at var4 908)))
(assert (= "'" (str.at var20 706)))
(assert (= "j" (str.at var46 515)))
(assert (= "4" (str.at var4 827)))
(assert (= "Q" (str.at var51 235)))
(assert (= "O" (str.at var24 996)))
(assert (= "3" (str.at var25 222)))
(assert (= "5" (str.at var54 737)))
(assert (= "\\" (str.at var47 24)))
(assert (= "g" (str.at var30 727)))
(assert (= "e" (str.at var58 558)))
(assert (= "3" (str.at var27 21)))
(assert (= ";" (str.at var59 943)))
(assert (= "x" (str.at var20 176)))
(assert (= "g" (str.at var46 935)))
(assert (= "0" (str.at var3 837)))
(assert (= "C" (str.at var1 655)))
(assert (= "C" (str.at var4 500)))
(assert (= "?" (str.at var54 542)))
(assert (= "g" (str.at var57 548)))
(assert (= "h" (str.at var14 773)))
(assert (= "R" (str.at var32 518)))
(assert (= "+" (str.at var45 145)))
(assert (= "F" (str.at var22 696)))
(assert (= "=" (str.at var57 363)))
(assert (= "/" (str.at var28 17)))
(assert (= "C" (str.at var1 306)))
(assert (= "M" (str.at var31 267)))
(assert (= "a" (str.at var26 346)))
(assert (= "W" (str.at var55 793)))
(assert (= "c" (str.at var29 387)))
(assert (= ">" (str.at var10 220)))
(assert (= "<" (str.at var21 58)))
(assert (= "S" (str.at var14 150)))
(assert (= "/" (str.at var16 687)))
(assert (= "E" (str.at var58 532)))
(assert (= "u" (str.at var22 286)))
(assert (= "S" (str.at var4 482)))
(assert (= "2" (str.at var31 738)))
(assert (= "n" (str.at var12 759)))
(assert (= "(" (str.at var1 890)))
(assert (= "G" (str.at var30 495)))
(assert (= "K" (str.at var9 53)))
(assert (= "@" (str.at var4 125)))
(assert (= "y" (str.at var17 574)))
(assert (= "|" (str.at var19 45)))
(assert (= "q" (str.at var7 185)))
(assert (= "F" (str.at var47 609)))
(assert (= "O" (str.at var43 952)))
(assert (= "'" (str.at var46 491)))
(assert (= "N" (str.at var21 128)))
(assert (= "P" (str.at var58 784)))
(assert (= "L" (str.at var44 262)))
(assert (= "!" (str.at var26 160)))
(assert (= "x" (str.at var43 807)))
(assert (= "4" (str.at var54 436)))
(assert (= "'" (str.at var37 771)))
(check-sat)